Problem:    
Rows:       256
Columns:    89 (72 integer, 72 binary)
Non-zeros:  960
Status:     INTEGER OPTIMAL
Objective:  value = 190.809761 (MINimum)

   No.   Row name        Activity     Lower bound   Upper bound
------ ------------    ------------- ------------- -------------
     1 r.5                    190.81             0               
     2 r.6                   110.315      -965.159               
     3 r.7                   1190.81             0               
     4 r.8                  -918.089      -962.469               
     5 r.9                    190.81             0               
     6 r.10                  124.559      -960.418               
     7 r.11                  1190.81             0               
     8 r.12                 -875.441      -959.819               
     9 r.13                  1190.81             0               
    10 r.14                 -895.271      -940.634               
    11 r.15                   190.81             0               
    12 r.16                  127.026       -937.18               
    13 r.17                  1190.81             0               
    14 r.18                 -958.144      -968.661               
    15 r.19                   190.81             0               
    16 r.20                  47.8307       -964.08               
    17 r.21                   190.81             0               
    18 r.22                  110.315      -971.544               
    19 r.23                  1190.81             0               
    20 r.24                 -958.088      -968.604               
    21 r.25                  1190.81             0               
    22 r.26                 -997.862      -997.862               
    23 r.27                   190.81             0               
    24 r.28                  17.9187      -967.656               
    25 r.29                  1190.81             0               
    26 r.30                  -809.19      -916.712               
    27 r.31                   190.81             0               
    28 r.32                   190.81      -933.378               
    29 r.33                   190.81             0               
    30 r.34                   190.81      -915.986               
    31 r.35                  1190.81             0               
    32 r.36                  -809.19      -933.749               
    33 r.37                        1             1             = 
    34 r.38                        1             1             = 
    35 r.39                        1             1             = 
    36 r.40                        1             1             = 
    37 r.41                        1             1             = 
    38 r.42                        1             1             = 
    39 r.43                        1             1             = 
    40 r.44                        1             1             = 
    41 r.45                     1000             2               
    42 r.46                    -1000         -1001               
    43 r.47                  2017.04      -960.418               
    44 r.48                        2             2               
    45 r.49                       -2         -1001               
    46 r.50                 -959.819      -959.819               
    47 r.51                     1001             2               
    48 r.52                    -1001         -1001               
    49 r.53                  1997.21      -940.634               
    50 r.54                     1001             2               
    51 r.55                    -1001         -1001               
    52 r.56                  2042.65       -937.18               
    53 r.57                     1001             2               
    54 r.58                    -1001         -1001               
    55 r.59                  1934.33      -968.661               
    56 r.60                     1001             2               
    57 r.61                    -1001         -1001               
    58 r.62                  1963.45       -964.08               
    59 r.63                     1000             2               
    60 r.64                    -1000         -1001               
    61 r.65                  2002.79      -971.544               
    62 r.66                        2             2               
    63 r.67                       -2         -1001               
    64 r.68                 -42.4661      -968.604               
    65 r.69                   99.798      -965.159               
    66 r.70                 -928.606      -962.469               
    67 r.71                   99.798      -965.159               
    68 r.72                 -928.606      -962.469               
    69 r.73                 -916.712      -916.712               
    70 r.74                  83.2878      -933.378               
    71 r.75                 -893.569      -916.712               
    72 r.76                  106.431      -933.378               
    73 r.77                     1000             2               
    74 r.78                    -1000         -1001               
    75 r.79                  2083.29      -915.986               
    76 r.80                        2             2               
    77 r.81                       -2         -1001               
    78 r.82                 -893.569      -933.749               
    79 r.83                     1000             2               
    80 r.84                    -1000         -1001               
    81 r.85                  1985.76       34.8406               
    82 r.86                        2             2               
    83 r.87                       -2         -1001               
    84 r.88                  957.352       37.5314               
    85 r.89                     1001             2               
    86 r.90                    -1001         -1001               
    87 r.91                  1980.17      -940.634               
    88 r.92                     1001             2               
    89 r.93                    -1001         -1001               
    90 r.94                  2002.47       -937.18               
    91 r.95                     1001             2               
    92 r.96                    -1001         -1001               
    93 r.97                   1917.3      -968.661               
    94 r.98                     1001             2               
    95 r.99                    -1001         -1001               
    96 r.100                 1923.27       -964.08               
    97 r.101                    1000             2               
    98 r.102                   -1000         -1001               
    99 r.103                 1985.76      -971.544               
   100 r.104                       2             2               
   101 r.105                      -2         -1001               
   102 r.106                -82.6469      -968.604               
   103 r.107                 114.042      -960.418               
   104 r.108                -885.958      -959.819               
   105 r.109                 114.042      -960.418               
   106 r.110                -885.958      -959.819               
   107 r.111                    1001             2               
   108 r.112                   -1001         -1001               
   109 r.113                 2066.25      -916.712               
   110 r.114                    1001             2               
   111 r.115                   -1001         -1001               
   112 r.116                 2066.25      -933.378               
   113 r.117                 66.2506      -915.986               
   114 r.118                -933.749      -933.749               
   115 r.119                 66.2506      -915.986               
   116 r.120                -933.749      -933.749               
   117 r.121                    1001             2               
   118 r.122                   -1001         -1001               
   119 r.123                 2002.79       34.8406               
   120 r.124                    1001             2               
   121 r.125                   -1001         -1001               
   122 r.126                 1957.35       37.5314               
   123 r.127                    1001             2               
   124 r.128                   -1001         -1001               
   125 r.129                 2017.04       39.5822               
   126 r.130                    1001             2               
   127 r.131                   -1001         -1001               
   128 r.132                    2000       40.1808               
   129 r.133                -939.919      -940.634               
   130 r.134                  82.378       -937.18               
   131 r.135                -940.634      -940.634               
   132 r.136                 81.6631       -937.18               
   133 r.137                    1001             2               
   134 r.138                   -1001         -1001               
   135 r.139                 2002.79      -971.544               
   136 r.140                    1001             2               
   137 r.141                   -1001         -1001               
   138 r.142                 1917.35      -968.604               
   139 r.143                -905.788      -940.634               
   140 r.144                  116.51       -937.18               
   141 r.145                -905.788      -940.634               
   142 r.146                  116.51       -937.18               
   143 r.147                       2             2               
   144 r.148                      -2         -1001               
   145 r.149                -916.712      -916.712               
   146 r.150                    1000             2               
   147 r.151                   -1000         -1001               
   148 r.152                 2066.25      -933.378               
   149 r.153                 83.2878      -915.986               
   150 r.154                -916.712      -933.749               
   151 r.155                 66.2506      -915.986               
   152 r.156                -933.749      -933.749               
   153 r.157                    1001             2               
   154 r.158                   -1001         -1001               
   155 r.159                 2065.67       34.8406               
   156 r.160                    1001             2               
   157 r.161                   -1001         -1001               
   158 r.162                 2036.55       37.5314               
   159 r.163                    1001             2               
   160 r.164                   -1001         -1001               
   161 r.165                 2079.91       39.5822               
   162 r.166                    1001             2               
   163 r.167                   -1001         -1001               
   164 r.168                  2079.2       40.1808               
   165 r.169                    1001             2               
   166 r.170                   -1001         -1001               
   167 r.171                 2065.67      -971.544               
   168 r.172                    1001             2               
   169 r.173                   -1001         -1001               
   170 r.174                 1996.55      -968.604               
   171 r.175                -968.661      -968.661               
   172 r.176                  37.314       -964.08               
   173 r.177                -968.661      -968.661               
   174 r.178                  37.314       -964.08               
   175 r.179                       2             2               
   176 r.180                      -2         -1001               
   177 r.181                -853.839      -916.712               
   178 r.182                    1000             2               
   179 r.183                   -1000         -1001               
   180 r.184                 2145.45      -933.378               
   181 r.185                 146.161      -915.986               
   182 r.186                -853.839      -933.749               
   183 r.187                 145.446      -915.986               
   184 r.188                -854.554      -933.749               
   185 r.189                    1000             2               
   186 r.190                   -1000         -1001               
   187 r.191                 2002.79       34.8406               
   188 r.192                       2             2               
   189 r.193                      -2         -1001               
   190 r.194                 37.5314       37.5314               
   191 r.195                    1000             2               
   192 r.196                   -1000         -1001               
   193 r.197                 2017.04       39.5822               
   194 r.198                       2             2               
   195 r.199                      -2         -1001               
   196 r.200                 80.1795       40.1808               
   197 r.201                    1001             2               
   198 r.202                   -1001         -1001               
   199 r.203                 1997.21       59.3658               
   200 r.204                    1001             2               
   201 r.205                   -1001         -1001               
   202 r.206                 2082.65       62.8198               
   203 r.207                    1001             2               
   204 r.208                   -1001         -1001               
   205 r.209                 1934.33        31.339               
   206 r.210                    1001             2               
   207 r.211                   -1001         -1001               
   208 r.212                 2003.45       35.9203               
   209 r.213                  99.798      -971.544               
   210 r.214                -968.604      -968.604               
   211 r.215                  99.798      -971.544               
   212 r.216                -968.604      -968.604               
   213 r.217                -916.712      -916.712               
   214 r.218                 83.2878      -933.378               
   215 r.219                 -853.57      -916.712               
   216 r.220                  146.43      -933.378               
   217 r.221                 83.2878      -915.986               
   218 r.222                -916.712      -933.749               
   219 r.223                  146.43      -915.986               
   220 r.224                 -853.57      -933.749               
   221 r.225                    1001             2               
   222 r.226                   -1001         -1001               
   223 r.227                 1933.75       39.5822               
   224 r.228                    1001             2               
   225 r.229                   -1001         -1001               
   226 r.230                 1933.75       40.1808               
   227 r.231                       2             2               
   228 r.232                      -2         -1001               
   229 r.233                 913.919       59.3658               
   230 r.234                    1000             2               
   231 r.235                   -1000         -1001               
   232 r.236                 1936.22       62.8198               
   233 r.237                       2             2               
   234 r.238                      -2         -1001               
   235 r.239                 851.046        31.339               
   236 r.240                    1000             2               
   237 r.241                   -1000         -1001               
   238 r.242                 1857.02       35.9203               
   239 r.243                    1001             2               
   240 r.244                   -1001         -1001               
   241 r.245                    2000      -915.986               
   242 r.246                    1001             2               
   243 r.247                   -1001         -1001               
   244 r.248                    2000      -933.749               
   245 r.249                    1000             2               
   246 r.250                   -1000         -1001               
   247 r.251                  1919.5       34.8406               
   248 r.252                       2             2               
   249 r.253                      -2         -1001               
   250 r.254                 891.101       37.5314               
   251 r.255                    1001             2               
   252 r.256                   -1001         -1001               
   253 r.257                    2000       83.2878               
   254 r.258                    1001             2               
   255 r.259                   -1001         -1001               
   256 r.260                    2000       66.6216               

   No. Column name       Activity     Lower bound   Upper bound
------ ------------    ------------- ------------- -------------
     1 tt                     190.81             0               
     2 s_1_1        *              0             0             1 
     3 t_1_1                 83.2878             0               
     4 s_1_7        *              1             0             1 
     5 s_2_1        *              1             0             1 
     6 t_2_1                 106.431             0               
     7 s_2_7        *              0             0             1 
     8 s_1_2        *              0             0             1 
     9 t_1_2                 66.2506             0               
    10 s_1_8        *              0             0             1 
    11 s_2_2        *              1             0             1 
    12 t_2_2                 66.2506             0               
    13 s_2_8        *              1             0             1 
    14 s_1_3        *              1             0             1 
    15 t_1_3                 83.2878             0               
    16 s_2_3        *              0             0             1 
    17 t_2_3                 66.2506             0               
    18 s_1_4        *              1             0             1 
    19 t_1_4                 146.161             0               
    20 s_2_4        *              0             0             1 
    21 t_2_4                 145.446             0               
    22 s_1_5        *              0             0             1 
    23 t_1_5                 83.2878             0               
    24 s_2_5        *              1             0             1 
    25 t_2_5                  146.43             0               
    26 s_1_6        *              1             0             1 
    27 t_1_6                 180.293             0               
    28 s_2_6        *              0             0             1 
    29 t_2_6                 180.293             0               
    30 t_1_7                       0             0               
    31 t_2_7                       0             0               
    32 t_1_8                       0             0               
    33 t_2_8                       0             0               
    34 r_1_1_2      *              1             0             1 
    35 u_1_1_2      *              0             0             1 
    36 r_2_1_2      *              0             0             1 
    37 u_2_1_2      *              1             0             1 
    38 r_1_1_3      *              1             0             1 
    39 u_1_1_3      *              0             0             1 
    40 r_2_1_3      *              1             0             1 
    41 u_2_1_3      *              0             0             1 
    42 r_1_1_4      *              1             0             1 
    43 u_1_1_4      *              0             0             1 
    44 r_2_1_4      *              1             0             1 
    45 u_2_1_4      *              0             0             1 
    46 r_1_1_5      *              1             0             1 
    47 u_1_1_5      *              0             0             1 
    48 r_2_1_5      *              0             0             1 
    49 u_2_1_5      *              0             0             1 
    50 r_1_1_8      *              1             0             1 
    51 u_1_1_8      *              0             0             1 
    52 r_2_1_8      *              0             0             1 
    53 u_2_1_8      *              1             0             1 
    54 r_1_2_3      *              1             0             1 
    55 u_1_2_3      *              0             0             1 
    56 r_2_2_3      *              1             0             1 
    57 u_2_2_3      *              0             0             1 
    58 r_1_2_4      *              1             0             1 
    59 u_1_2_4      *              0             0             1 
    60 r_2_2_4      *              1             0             1 
    61 u_2_2_4      *              0             0             1 
    62 r_1_2_5      *              1             0             1 
    63 u_1_2_5      *              0             0             1 
    64 r_2_2_5      *              0             0             1 
    65 u_2_2_5      *              0             0             1 
    66 r_1_2_7      *              1             0             1 
    67 u_1_2_7      *              0             0             1 
    68 r_2_2_7      *              1             0             1 
    69 u_2_2_7      *              0             0             1 
    70 r_1_3_5      *              1             0             1 
    71 u_1_3_5      *              0             0             1 
    72 r_2_3_5      *              1             0             1 
    73 u_2_3_5      *              0             0             1 
    74 r_1_3_7      *              0             0             1 
    75 u_1_3_7      *              1             0             1 
    76 r_2_3_7      *              1             0             1 
    77 u_2_3_7      *              0             0             1 
    78 r_1_4_5      *              1             0             1 
    79 u_1_4_5      *              0             0             1 
    80 r_2_4_5      *              1             0             1 
    81 u_2_4_5      *              0             0             1 
    82 r_1_4_7      *              0             0             1 
    83 u_1_4_7      *              1             0             1 
    84 r_2_4_7      *              1             0             1 
    85 u_2_4_7      *              0             0             1 
    86 r_1_7_8      *              1             0             1 
    87 u_1_7_8      *              0             0             1 
    88 r_2_7_8      *              1             0             1 
    89 u_2_7_8      *              0             0             1 

Integer feasibility conditions:

KKT.PE: max.abs.err = 4.55e-13 on row 155
        max.rel.err = 1.06e-16 on row 8
        High quality

KKT.PB: max.abs.err = 1.14e-13 on row 131
        max.rel.err = 1.21e-16 on row 131
        High quality

End of output
